<number of tasks>
20


<number of equipment>
5


<cycle time>
1000


<investment costs>
1,7120
2,23910
3,9788
4,19299
5,6537


<task times>
1,710,-1,632,-1,648
2,504,-1,499,-1,545
3,710,-1,701,-1,764
4,560,-1,708,511,-1
5,702,-1,657,543,-1
6,682,-1,694,517,-1
7,739,-1,710,568,-1
8,-1,373,-1,490,-1
9,684,-1,613,493,-1
10,601,-1,661,-1,590
11,592,-1,634,469,-1
12,740,-1,690,506,-1
13,709,-1,681,-1,533
14,750,-1,489,-1,602
15,713,-1,678,-1,745
16,-1,472,-1,514,-1
17,-1,416,-1,428,-1
18,699,-1,690,-1,753
19,769,-1,740,-1,784
20,740,-1,708,-1,771


<precedence relations>
1,14
2,14
3,14
4,5
4,6
4,7
4,8
5,9
6,12
6,13
7,11
8,10
9,14
10,15
11,16
14,17
14,18
14,19
14,20


<task types>
1,3
2,3
3,3
4,2
5,2
6,2
7,2
8,1
9,2
10,3
11,2
12,2
13,3
14,3
15,3
16,1
17,1
18,3
19,3
20,3


<line depot>
1,7
2,0
3,0
4,3
5,10


<processing costs>
1,14400
2,7200
3,14400
4,14400
5,7200


<saving costs>
1,712
2,2391
3,978
4,1929
5,653


<end>
